data/OOEBPP/R1000/BPP_1000_300_0.2_0.8_8.txt.ins
1000
300 300
1 240 854
2 240 77
3 240 482
4 240 789
5 240 210
6 240 549
7 239 9
8 239 934
9 239 185
10 239 208
11 239 106
12 239 636
13 238 946
14 238 717
15 238 721
16 238 168
17 238 464
18 238 409
19 238 501
20 237 851
21 237 73
22 237 246
23 237 947
24 236 131
25 236 703
26 236 969
27 235 385
28 235 43
29 235 653
30 235 240
31 234 404
32 234 773
33 234 194
34 234 75
35 234 36
36 234 151
37 234 32
38 233 583
39 233 986
40 233 537
41 233 10
42 233 854
43 233 321
44 233 200
45 233 625
46 233 543
47 233 9
48 232 720
49 232 630
50 232 929
51 232 569
52 232 823
53 231 194
54 231 102
55 231 200
56 231 922
57 231 63
58 231 201
59 231 735
60 230 788
61 230 256
62 230 251
63 230 89
64 230 931
65 229 239
66 229 623
67 229 328
68 229 960
69 229 879
70 228 161
71 228 487
72 228 839
73 228 447
74 228 970
75 228 222
76 228 641
77 228 559
78 228 656
79 227 619
80 227 163
81 227 112
82 227 183
83 226 930
84 226 953
85 226 916
86 226 268
87 226 93
88 226 784
89 226 670
90 225 519
91 225 101
92 225 629
93 225 539
94 225 316
95 225 588
96 225 999
97 224 686
98 224 422
99 224 88
100 224 169
101 224 200
102 223 720
103 223 761
104 223 486
105 223 812
106 222 152
107 222 610
108 222 431
109 222 244
110 222 962
111 222 789
112 221 295
113 221 166
114 220 708
115 220 348
116 220 737
117 219 752
118 219 681
119 219 983
120 219 167
121 219 919
122 218 613
123 218 811
124 218 212
125 217 766
126 217 191
127 217 745
128 217 741
129 217 748
130 217 110
131 217 316
132 217 38
133 216 348
134 216 263
135 216 397
136 216 442
137 216 770
138 216 619
139 216 879
140 216 410
141 215 39
142 215 276
143 215 353
144 215 463
145 215 514
146 215 497
147 214 947
148 214 222
149 214 180
150 214 261
151 214 378
152 214 896
153 213 440
154 213 6
155 213 742
156 213 908
157 212 675
158 212 67
159 211 844
160 211 988
161 211 824
162 210 759
163 210 597
164 210 158
165 210 713
166 210 283
167 210 629
168 210 689
169 210 847
170 209 434
171 209 468
172 208 858
173 208 818
174 208 108
175 208 557
176 207 125
177 207 368
178 207 550
179 207 407
180 207 868
181 206 530
182 206 350
183 206 10
184 206 437
185 206 745
186 206 724
187 206 433
188 205 108
189 205 251
190 205 232
191 204 361
192 204 951
193 204 428
194 204 398
195 204 708
196 204 393
197 204 31
198 203 309
199 203 175
200 203 790
201 203 978
202 203 277
203 203 270
204 202 491
205 202 377
206 202 631
207 202 424
208 202 119
209 202 160
210 201 990
211 201 584
212 201 809
213 201 538
214 201 8
215 201 42
216 201 443
217 201 431
218 201 464
219 200 936
220 200 596
221 200 102
222 200 395
223 199 741
224 199 742
225 199 876
226 199 251
227 199 388
228 199 546
229 198 236
230 198 800
231 198 37
232 198 306
233 198 640
234 197 524
235 197 727
236 197 370
237 197 763
238 197 710
239 197 25
240 196 54
241 196 156
242 196 160
243 196 244
244 196 786
245 196 993
246 196 241
247 195 275
248 195 821
249 195 813
250 194 384
251 194 324
252 194 666
253 194 152
254 193 193
255 193 443
256 193 93
257 193 1000
258 193 307
259 193 474
260 193 779
261 193 867
262 192 132
263 192 330
264 192 841
265 192 442
266 191 424
267 191 629
268 191 266
269 191 703
270 191 565
271 191 660
272 190 996
273 190 350
274 190 180
275 190 624
276 190 875
277 190 500
278 190 161
279 190 749
280 190 470
281 190 801
282 190 37
283 190 452
284 190 152
285 189 689
286 189 324
287 189 820
288 189 927
289 189 713
290 189 541
291 188 634
292 188 782
293 188 644
294 188 682
295 188 835
296 188 941
297 188 470
298 188 57
299 187 483
300 187 942
301 187 650
302 187 842
303 186 676
304 186 404
305 186 225
306 186 337
307 185 292
308 185 388
309 185 194
310 185 609
311 185 5
312 184 399
313 184 209
314 184 571
315 184 234
316 184 945
317 184 540
318 184 278
319 183 27
320 183 643
321 183 619
322 182 995
323 182 959
324 182 85
325 182 724
326 181 485
327 181 558
328 181 693
329 181 944
330 181 491
331 180 313
332 180 611
333 180 272
334 180 547
335 180 154
336 179 710
337 179 910
338 179 825
339 179 149
340 179 146
341 178 473
342 178 911
343 178 465
344 178 560
345 178 872
346 178 694
347 177 185
348 177 879
349 177 346
350 177 907
351 177 141
352 177 524
353 177 674
354 177 513
355 176 143
356 176 862
357 176 607
358 176 727
359 176 674
360 175 229
361 175 948
362 175 948
363 174 581
364 174 560
365 174 837
366 174 311
367 173 390
368 173 706
369 173 692
370 173 401
371 172 636
372 172 588
373 172 145
374 172 512
375 172 121
376 172 211
377 172 501
378 171 556
379 171 131
380 171 958
381 171 683
382 170 507
383 170 858
384 170 919
385 170 444
386 170 742
387 170 410
388 170 173
389 170 199
390 169 136
391 169 232
392 169 798
393 169 467
394 169 401
395 168 357
396 168 619
397 168 273
398 168 13
399 168 320
400 168 73
401 167 620
402 167 667
403 167 119
404 167 292
405 167 707
406 167 486
407 167 583
408 167 197
409 166 950
410 166 195
411 166 130
412 166 298
413 165 114
414 165 449
415 165 241
416 164 276
417 164 453
418 164 162
419 163 978
420 163 398
421 163 63
422 163 720
423 163 918
424 162 554
425 162 374
426 162 94
427 162 346
428 162 813
429 161 558
430 161 248
431 161 720
432 161 777
433 161 497
434 161 538
435 161 1000
436 160 484
437 160 347
438 160 606
439 160 198
440 160 289
441 160 663
442 159 191
443 159 606
444 159 699
445 159 199
446 159 413
447 158 742
448 158 405
449 158 5
450 157 450
451 157 450
452 157 480
453 157 373
454 157 937
455 157 32
456 157 386
457 156 644
458 156 301
459 156 112
460 156 899
461 156 188
462 155 673
463 155 810
464 155 147
465 155 502
466 155 486
467 155 3
468 155 823
469 155 756
470 155 790
471 154 498
472 154 838
473 154 787
474 154 893
475 153 783
476 153 986
477 153 179
478 153 731
479 152 453
480 152 595
481 152 112
482 152 160
483 152 199
484 152 408
485 152 518
486 151 881
487 151 278
488 151 743
489 151 564
490 151 719
491 151 397
492 150 422
493 150 745
494 150 68
495 150 758
496 150 536
497 150 531
498 150 947
499 150 616
500 149 688
501 149 127
502 149 488
503 148 930
504 148 720
505 148 718
506 147 946
507 147 439
508 147 251
509 147 808
510 147 885
511 147 21
512 146 958
513 146 100
514 146 174
515 146 103
516 146 418
517 145 566
518 145 444
519 144 813
520 144 696
521 144 920
522 144 627
523 144 45
524 144 310
525 144 638
526 143 885
527 143 925
528 143 655
529 143 409
530 143 921
531 142 713
532 142 605
533 142 861
534 142 247
535 142 541
536 142 239
537 142 848
538 142 603
539 141 410
540 141 595
541 141 950
542 141 977
543 141 893
544 140 672
545 140 454
546 140 671
547 140 142
548 140 284
549 139 414
550 139 406
551 138 32
552 138 395
553 138 259
554 138 779
555 138 6
556 137 156
557 137 575
558 137 895
559 137 870
560 137 867
561 137 944
562 137 710
563 136 87
564 136 984
565 136 533
566 135 899
567 135 588
568 135 565
569 134 634
570 134 180
571 134 48
572 134 797
573 134 344
574 133 155
575 133 538
576 133 986
577 133 813
578 132 258
579 132 413
580 132 701
581 132 421
582 131 349
583 131 131
584 131 914
585 131 403
586 131 801
587 131 714
588 131 964
589 131 455
590 130 568
591 130 873
592 130 83
593 130 751
594 130 941
595 130 165
596 130 110
597 129 745
598 129 149
599 129 716
600 129 223
601 128 170
602 128 502
603 128 17
604 127 780
605 127 858
606 127 362
607 127 640
608 127 67
609 127 400
610 126 335
611 126 704
612 126 430
613 126 274
614 126 770
615 126 13
616 126 250
617 126 824
618 126 146
619 126 800
620 126 665
621 126 248
622 126 242
623 126 985
624 125 85
625 125 809
626 125 469
627 125 16
628 124 55
629 124 884
630 124 755
631 124 785
632 124 280
633 124 653
634 124 473
635 123 2
636 123 99
637 123 114
638 123 11
639 123 659
640 123 60
641 123 161
642 123 142
643 123 136
644 123 496
645 123 749
646 123 277
647 122 285
648 122 360
649 122 850
650 121 665
651 121 539
652 121 155
653 121 294
654 121 186
655 121 586
656 121 539
657 121 695
658 121 779
659 120 259
660 120 2
661 120 60
662 120 382
663 120 13
664 120 794
665 119 873
666 119 709
667 119 67
668 119 807
669 118 857
670 118 547
671 118 28
672 118 524
673 118 891
674 118 656
675 118 897
676 117 44
677 117 483
678 117 579
679 116 139
680 116 318
681 116 961
682 116 955
683 116 352
684 116 52
685 115 289
686 115 5
687 115 424
688 115 456
689 115 867
690 114 328
691 114 823
692 114 216
693 114 54
694 114 22
695 114 560
696 113 549
697 113 592
698 113 352
699 113 311
700 112 270
701 112 193
702 112 476
703 112 677
704 112 537
705 112 342
706 112 649
707 112 130
708 111 288
709 111 696
710 111 115
711 111 77
712 111 154
713 111 534
714 111 708
715 111 784
716 111 775
717 111 582
718 110 273
719 110 476
720 110 155
721 110 505
722 110 212
723 110 639
724 109 832
725 109 316
726 109 698
727 108 868
728 108 848
729 107 911
730 107 146
731 107 596
732 107 849
733 106 844
734 106 281
735 106 380
736 106 96
737 106 919
738 106 764
739 105 532
740 105 299
741 105 967
742 105 250
743 105 692
744 105 20
745 105 756
746 104 323
747 104 459
748 104 741
749 104 529
750 104 562
751 103 443
752 103 53
753 103 33
754 103 301
755 102 423
756 102 413
757 102 552
758 102 833
759 102 771
760 101 507
761 101 203
762 101 295
763 101 882
764 101 643
765 101 499
766 100 294
767 100 630
768 100 582
769 100 897
770 100 380
771 99 116
772 99 158
773 99 721
774 99 135
775 98 151
776 98 479
777 98 917
778 98 918
779 97 113
780 97 292
781 97 429
782 97 467
783 97 201
784 97 85
785 97 212
786 97 568
787 96 679
788 96 619
789 96 996
790 96 437
791 96 161
792 95 949
793 95 463
794 95 307
795 95 503
796 94 628
797 94 631
798 94 648
799 94 52
800 94 693
801 93 339
802 93 565
803 93 243
804 93 56
805 93 977
806 92 695
807 92 998
808 92 776
809 92 484
810 92 177
811 92 553
812 92 173
813 91 192
814 91 376
815 91 603
816 91 956
817 91 947
818 91 530
819 91 232
820 91 441
821 90 48
822 90 907
823 90 374
824 90 145
825 90 250
826 90 410
827 90 92
828 90 220
829 89 214
830 89 69
831 89 203
832 89 476
833 89 851
834 89 801
835 89 842
836 89 258
837 89 974
838 88 924
839 87 68
840 87 414
841 87 999
842 87 525
843 87 276
844 87 372
845 87 862
846 86 403
847 86 738
848 86 348
849 86 336
850 86 518
851 86 23
852 86 934
853 86 241
854 86 989
855 85 90
856 85 66
857 85 368
858 85 546
859 85 492
860 85 171
861 85 967
862 85 861
863 85 281
864 85 558
865 85 435
866 84 192
867 84 621
868 84 245
869 84 500
870 84 690
871 83 553
872 83 652
873 83 44
874 83 957
875 83 131
876 83 40
877 83 955
878 83 364
879 82 568
880 82 684
881 82 270
882 82 827
883 82 824
884 82 133
885 81 25
886 80 390
887 80 312
888 80 321
889 80 974
890 80 933
891 79 520
892 79 342
893 79 927
894 79 121
895 79 721
896 78 678
897 78 556
898 78 555
899 78 440
900 78 806
901 78 874
902 78 512
903 78 8
904 78 960
905 77 47
906 77 175
907 77 829
908 77 819
909 77 471
910 76 217
911 76 211
912 76 471
913 76 975
914 76 90
915 76 541
916 75 449
917 75 219
918 75 413
919 75 996
920 75 622
921 75 125
922 74 630
923 74 369
924 73 334
925 73 445
926 73 489
927 73 63
928 73 966
929 73 921
930 72 909
931 72 782
932 72 366
933 71 173
934 71 452
935 71 586
936 70 401
937 70 855
938 70 958
939 70 831
940 69 824
941 69 389
942 69 898
943 69 940
944 69 784
945 69 884
946 68 321
947 68 299
948 68 580
949 68 740
950 67 571
951 67 101
952 67 718
953 67 419
954 67 656
955 67 273
956 67 568
957 66 969
958 66 245
959 66 552
960 66 941
961 66 251
962 65 209
963 65 833
964 65 634
965 65 969
966 65 712
967 65 151
968 65 452
969 65 438
970 65 287
971 64 281
972 64 573
973 64 964
974 64 67
975 64 89
976 64 339
977 63 823
978 63 419
979 63 868
980 63 214
981 63 931
982 62 956
983 62 564
984 62 960
985 62 561
986 62 144
987 62 391
988 61 886
989 61 750
990 61 388
991 61 724
992 61 588
993 61 940
994 61 992
995 61 756
996 60 704
997 60 772
998 60 305
999 60 949
1000 60 658
