results/OOEBPP/BPP_1000_300_0.2_0.8_8.txt.ins.log
292,291.265,33.7928,OPT,11535,0,0,AI,0,0.0719178,2.97603,0.704889,32.6558,0,2,0,69,66
